
******************************************************************************
This program contains Ipopt, a library for large-scale nonlinear optimization.
 Ipopt is released as open source code under the Eclipse Public License (EPL).
         For more information visit http://projects.coin-or.org/Ipopt

This version of Ipopt was compiled from source code available at
    https://github.com/IDAES/Ipopt as part of the Institute for the Design of
    Advanced Energy Systems Process Systems Engineering Framework (IDAES PSE
    Framework) Copyright (c) 2018-2019. See https://github.com/IDAES/idaes-pse.

This version of Ipopt was compiled using HSL, a collection of Fortran codes
    for large-scale scientific computation.  All technical papers, sales and
    publicity material resulting from use of the HSL codes within IPOPT must
    contain the following acknowledgement:
        HSL, a collection of Fortran codes for large-scale scientific
        computation. See http://www.hsl.rl.ac.uk.
******************************************************************************

This is Ipopt version 3.13.2, running with linear solver ma27.

Number of nonzeros in equality constraint Jacobian...:     1210
Number of nonzeros in inequality constraint Jacobian.:        0
Number of nonzeros in Lagrangian Hessian.............:     1376

Total number of variables............................:      480
                     variables with only lower bounds:      128
                variables with lower and upper bounds:      288
                     variables with only upper bounds:        0
Total number of equality constraints.................:      477
Total number of inequality constraints...............:        0
        inequality constraints with only lower bounds:        0
   inequality constraints with lower and upper bounds:        0
        inequality constraints with only upper bounds:        0

iter    objective    inf_pr   inf_du lg(mu)  ||d||  lg(rg) alpha_du alpha_pr  ls
   0  0.0000000e+00 1.32e-01 1.42e-14  -1.0 0.00e+00    -  0.00e+00 0.00e+00   0
   1  6.4644182e+00 9.87e-02 1.41e+06  -1.0 1.85e+06    -  2.20e-01 2.01e-01h  3
   2  1.3102909e+01 9.68e-02 1.73e+06  -1.0 4.70e+06    -  2.24e-01 2.79e-02h  4
   3  4.9184334e+01 9.15e-02 9.57e+05  -1.0 6.69e+06    -  1.30e-01 7.87e-02h  3
   4  8.0691767e+01 8.40e-02 5.71e+05  -1.0 3.60e+06    -  2.59e-01 8.69e-02h  3
   5  1.1654452e+02 7.52e-02 4.37e+05  -1.0 2.07e+06    -  4.33e-01 1.38e-01h  3
   6  1.4075990e+02 7.10e-02 4.48e+05  -1.0 1.35e+06    -  4.56e-01 1.24e-01h  4
   7  1.4000961e+02 1.31e+00 1.49e+07  -1.0 3.69e+04  -4.0 8.91e-01 9.90e-01h  1
   8  1.4080295e+02 1.57e-01 2.51e+06  -1.0 2.15e+04  -4.5 9.79e-01 9.90e-01h  1
   9  1.4087142e+02 1.52e-01 1.74e+06  -1.0 9.33e+03  -5.0 9.85e-01 2.47e-01h  3
iter    objective    inf_pr   inf_du lg(mu)  ||d||  lg(rg) alpha_du alpha_pr  ls
  10  1.4080158e+02 1.41e-01 1.75e+04  -1.0 1.83e+03  -5.4 9.90e-01 9.90e-01h  1
  11  1.4085706e+02 1.33e-01 2.01e+07  -1.0 8.37e+03  -5.9 9.92e-01 2.47e-01h  3
  12  1.4072898e+02 1.21e-01 5.59e+05  -1.0 2.11e+03  -6.4 1.00e+00 9.90e-01h  1
  13  1.4074456e+02 1.10e-01 2.69e+09  -1.0 6.91e+03  -6.9 1.00e+00 2.48e-01h  3
  14  1.4026204e+02 5.84e-02 7.45e+07  -1.0 4.83e+03  -7.3 1.00e+00 9.90e-01h  1
  15  1.2216575e+01 2.92e-01 4.76e+09  -1.0 1.85e+06    -  1.00e+00 9.90e-01f  1
In iteration 15, 32 Slacks too small, adjusting variable bounds
  16  1.0806055e+01 1.17e+00 4.76e+11  -1.0 6.67e+04  -7.8 1.00e+00 9.90e-01h  1
  17  1.1648221e+01 6.92e-01 2.36e+13  -1.0 3.79e+04  -8.3 1.00e+00 5.00e-01h  2
  18  1.1775378e+01 6.68e-01 2.06e+13  -1.0 2.34e+04  -5.2 1.00e+00 1.25e-01h  4
  19  1.1806477e+01 6.63e-01 1.93e+13  -1.0 1.15e+04  -5.6 1.00e+00 6.25e-02h  5
iter    objective    inf_pr   inf_du lg(mu)  ||d||  lg(rg) alpha_du alpha_pr  ls
  20  1.1860178e+01 6.66e-01 1.81e+13  -1.0 2.09e+04  -6.1 1.00e+00 6.25e-02h  5
  21  1.1861378e+01 6.65e-01 1.81e+13  -1.0 1.58e+04  -3.9 1.00e+00 1.95e-03h 10
  22  1.1880549e+01 6.56e-01 1.75e+13  -1.0 1.21e+04  -4.4 1.00e+00 3.12e-02h  6
  23  1.1892351e+01 6.55e-01 1.72e+13  -1.0 2.03e+04  -4.8 1.00e+00 1.56e-02h  7
  24  1.1894330e+01 6.53e-01 1.71e+13  -1.0 9.94e+03  -4.4 1.00e+00 7.81e-03h  8
  25  1.0658880e+01 2.42e-01 1.58e+06  -1.0 4.62e+04  -4.9 1.00e+00 1.00e+00f  1
  26  1.0651782e+01 1.11e-04 6.72e+04  -1.7 5.49e+03  -4.5 1.00e+00 1.00e+00h  1
  27  1.0652284e+01 4.73e-08 1.41e+02  -5.7 3.05e+01  -4.9 1.00e+00 1.00e+00h  1
  28  9.5036326e+00 1.14e-02 4.93e+01  -5.7 8.86e+04    -  1.00e+00 1.00e+00f  1
  29  8.4101761e+00 4.73e-03 3.83e+00  -5.7 8.67e+04    -  1.00e+00 1.00e+00f  1
iter    objective    inf_pr   inf_du lg(mu)  ||d||  lg(rg) alpha_du alpha_pr  ls
  30  8.2646868e+00 6.30e-03 1.34e-01  -5.7 4.50e+04    -  1.00e+00 1.00e+00f  1
  31  8.2997965e+00 1.06e-04 1.01e-02  -5.7 1.67e+03    -  1.00e+00 1.00e+00h  1
  32  8.2997600e+00 1.24e-07 4.43e-06  -5.7 8.87e+01    -  1.00e+00 1.00e+00h  1
  33  8.2997601e+00 1.92e-10 3.60e-09  -8.6 6.59e+00    -  1.00e+00 1.00e+00h  1

Number of Iterations....: 33

                                   (scaled)                 (unscaled)
Objective...............:   8.2997601082796315e+00    8.2997601082796315e+00
Dual infeasibility......:   3.6027549284982900e-09    3.6027549284982900e-09
Constraint violation....:   1.9161389142041685e-10    1.9161389142041685e-10
Complementarity.........:   2.6483885413745991e-09    2.6483885413745991e-09
Overall NLP error.......:   5.4689207490773710e-10    3.6027549284982900e-09


Number of objective function evaluations             = 113
Number of objective gradient evaluations             = 34
Number of equality constraint evaluations            = 113
Number of inequality constraint evaluations          = 0
Number of equality constraint Jacobian evaluations   = 34
Number of inequality constraint Jacobian evaluations = 0
Number of Lagrangian Hessian evaluations             = 33
Total CPU secs in IPOPT (w/o function evaluations)   =      0.047
Total CPU secs in NLP function evaluations           =      0.920

EXIT: Optimal Solution Found.
